NAME : pr136cut50
COMMENT : 136-city problem (Padberg/Rinaldi)
TYPE : TSP
DIMENSION : 136
EDGE_WEIGHT_TYPE : EUC_2D
NODE_COORD_SECTION
1 5300 1965
2 7275 1965
3 12450 1965
4 14425 1965
5 4118 2275
6 4743 2275
7 5935 2275
8 6560 2275
9 11268 2275
10 11893 2275
11 13085 2275
12 13710 2275
13 14425 2590
14 12450 2590
15 10250 2675
16 7275 2590
17 5300 2590
18 3100 2675
19 5300 2760
20 7275 2760
21 12450 2760
22 14425 2760
23 13710 3075
24 13085 3075
25 11893 3075
26 11268 3075
27 6560 3075
28 5935 3075
29 4743 3075
30 4118 3075
31 5300 3385
32 7275 3385
33 12450 3385
34 14425 3385
35 14425 4515
36 12450 4515
37 7275 4515
38 5300 4515
39 4118 4825
40 4743 4825
41 5935 4825
42 6560 4825
43 11268 4825
44 11893 4825
45 13085 4825
46 13710 4825
47 14425 5140
48 12450 5140
49 10250 5225
50 7275 5140
EOF
